(set-logic QF_NRA)
(set-info :source |
From termination analysis of term rewriting.

Submitted by Harald Roman Zankl <Harald.Zankl@uibk.ac.at>

|)
(set-info :smt-lib-version 2.0)
(set-info :category "industrial")
(set-info :status unknown)
(declare-fun x6 () Real)
(declare-fun x23 () Real)
(declare-fun x40 () Real)
(declare-fun x57 () Real)
(declare-fun x74 () Real)
(declare-fun x13 () Real)
(declare-fun x30 () Real)
(declare-fun x47 () Real)
(declare-fun x64 () Real)
(declare-fun x3 () Real)
(declare-fun x81 () Real)
(declare-fun x20 () Real)
(declare-fun x37 () Real)
(declare-fun x54 () Real)
(declare-fun x71 () Real)
(declare-fun x10 () Real)
(declare-fun x27 () Real)
(declare-fun x44 () Real)
(declare-fun x61 () Real)
(declare-fun x0 () Real)
(declare-fun x78 () Real)
(declare-fun x17 () Real)
(declare-fun x34 () Real)
(declare-fun x51 () Real)
(declare-fun x68 () Real)
(declare-fun x7 () Real)
(declare-fun x24 () Real)
(declare-fun x41 () Real)
(declare-fun x58 () Real)
(declare-fun x75 () Real)
(declare-fun x14 () Real)
(declare-fun x31 () Real)
(declare-fun x48 () Real)
(declare-fun x65 () Real)
(declare-fun x4 () Real)
(declare-fun x82 () Real)
(declare-fun x21 () Real)
(declare-fun x38 () Real)
(declare-fun x55 () Real)
(declare-fun x72 () Real)
(declare-fun x11 () Real)
(declare-fun x28 () Real)
(declare-fun x45 () Real)
(declare-fun x62 () Real)
(declare-fun x1 () Real)
(declare-fun x79 () Real)
(declare-fun x18 () Real)
(declare-fun x35 () Real)
(declare-fun x52 () Real)
(declare-fun x69 () Real)
(declare-fun x8 () Real)
(declare-fun x25 () Real)
(declare-fun x42 () Real)
(declare-fun x59 () Real)
(declare-fun x76 () Real)
(declare-fun x15 () Real)
(declare-fun x32 () Real)
(declare-fun x49 () Real)
(declare-fun x66 () Real)
(declare-fun x5 () Real)
(declare-fun x83 () Real)
(declare-fun x22 () Real)
(declare-fun x39 () Real)
(declare-fun x56 () Real)
(declare-fun x73 () Real)
(declare-fun x12 () Real)
(declare-fun x29 () Real)
(declare-fun x46 () Real)
(declare-fun x63 () Real)
(declare-fun x2 () Real)
(declare-fun x80 () Real)
(declare-fun x19 () Real)
(declare-fun x36 () Real)
(declare-fun x53 () Real)
(declare-fun x70 () Real)
(declare-fun x9 () Real)
(declare-fun x26 () Real)
(declare-fun x43 () Real)
(declare-fun x60 () Real)
(declare-fun x77 () Real)
(declare-fun x16 () Real)
(declare-fun x33 () Real)
(declare-fun x50 () Real)
(declare-fun x67 () Real)
(assert (>= x6 0))
(assert (>= x23 0))
(assert (>= x40 0))
(assert (>= x57 0))
(assert (>= x74 0))
(assert (>= x13 0))
(assert (>= x30 0))
(assert (>= x47 0))
(assert (>= x64 0))
(assert (>= x3 0))
(assert (>= x81 0))
(assert (>= x20 0))
(assert (>= x37 0))
(assert (>= x54 0))
(assert (>= x71 0))
(assert (>= x10 0))
(assert (>= x27 0))
(assert (>= x44 0))
(assert (>= x61 0))
(assert (>= x0 0))
(assert (>= x78 0))
(assert (>= x17 0))
(assert (>= x34 0))
(assert (>= x51 0))
(assert (>= x68 0))
(assert (>= x7 0))
(assert (>= x24 0))
(assert (>= x41 0))
(assert (>= x58 0))
(assert (>= x75 0))
(assert (>= x14 0))
(assert (>= x31 0))
(assert (>= x48 0))
(assert (>= x65 0))
(assert (>= x4 0))
(assert (>= x82 0))
(assert (>= x21 0))
(assert (>= x38 0))
(assert (>= x55 0))
(assert (>= x72 0))
(assert (>= x11 0))
(assert (>= x28 0))
(assert (>= x45 0))
(assert (>= x62 0))
(assert (>= x1 0))
(assert (>= x79 0))
(assert (>= x18 0))
(assert (>= x35 0))
(assert (>= x52 0))
(assert (>= x69 0))
(assert (>= x8 0))
(assert (>= x25 0))
(assert (>= x42 0))
(assert (>= x59 0))
(assert (>= x76 0))
(assert (>= x15 0))
(assert (>= x32 0))
(assert (>= x49 0))
(assert (>= x66 0))
(assert (>= x5 0))
(assert (>= x83 0))
(assert (>= x22 0))
(assert (>= x39 0))
(assert (>= x56 0))
(assert (>= x73 0))
(assert (>= x12 0))
(assert (>= x29 0))
(assert (>= x46 0))
(assert (>= x63 0))
(assert (>= x2 0))
(assert (>= x80 0))
(assert (>= x19 0))
(assert (>= x36 0))
(assert (>= x53 0))
(assert (>= x70 0))
(assert (>= x9 0))
(assert (>= x26 0))
(assert (>= x43 0))
(assert (>= x60 0))
(assert (>= x77 0))
(assert (>= x16 0))
(assert (>= x33 0))
(assert (>= x50 0))
(assert (>= x67 0))
(assert (let ((?v_4 (+ x0 (* x1 x2))) (?v_7 (* x4 x2))) (let ((?v_0 (+ ?v_4 ?v_7)) (?v_2 (* x1 x3))) (let ((?v_6 (>= ?v_2 x1)) (?v_3 (* x4 x3))) (let ((?v_9 (>= ?v_3 x4)) (?v_1 (+ x5 (* x6 x7))) (?v_11 (* x4 x10))) (let ((?v_5 (+ ?v_4 ?v_11)) (?v_17 (* x4 x11))) (let ((?v_14 (>= ?v_17 x4)) (?v_10 (+ x0 (* x1 x10)))) (let ((?v_8 (+ ?v_10 ?v_7)) (?v_16 (* x1 x11))) (let ((?v_13 (>= ?v_16 x1)) (?v_12 (+ ?v_10 ?v_11)) (?v_21 (+ x0 (* x1 x7))) (?v_18 (+ x10 (* x11 x12)))) (let ((?v_61 (* x4 ?v_18))) (let ((?v_15 (+ ?v_21 ?v_61)) (?v_22 (* x1 x8)) (?v_24 (* x1 x9)) (?v_144 (+ x7 (* x8 x7))) (?v_68 (* x9 ?v_18))) (let ((?v_137 (+ ?v_144 ?v_68))) (let ((?v_19 (+ x5 (* x6 ?v_137))) (?v_141 (* x8 x8)) (?v_143 (* x8 x9)) (?v_20 (+ x0 (* x4 x7))) (?v_23 (* x4 x8)) (?v_29 (+ x13 (* x14 x2))) (?v_34 (* x15 x2))) (let ((?v_25 (+ ?v_29 ?v_34)) (?v_27 (* x14 x3))) (let ((?v_31 (>= ?v_27 x14)) (?v_28 (* x15 x3))) (let ((?v_36 (>= ?v_28 x15)) (?v_26 (+ x5 (* x6 x16))) (?v_43 (* x6 x17)) (?v_44 (* x6 x18)) (?v_38 (* x15 x10))) (let ((?v_30 (+ ?v_29 ?v_38)) (?v_33 (* x15 x11))) (let ((?v_41 (>= ?v_33 x15)) (?v_99 (+ x10 (* x11 x19)))) (let ((?v_32 (+ (+ x13 (* x14 x16)) (* x15 ?v_99))) (?v_37 (+ x13 (* x14 x10)))) (let ((?v_35 (+ ?v_37 ?v_34)) (?v_42 (* x14 x11))) (let ((?v_40 (>= ?v_42 x14)) (?v_39 (+ ?v_37 ?v_38)) (?v_46 (+ x20 (* x21 x2))) (?v_51 (* x22 x2))) (let ((?v_45 (+ ?v_46 ?v_51)) (?v_48 (* x21 x3)) (?v_53 (>= (* x22 x3) x22)) (?v_55 (* x22 x10))) (let ((?v_47 (+ ?v_46 ?v_55)) (?v_50 (* x22 x11)) (?v_49 (+ x23 (* x24 x25))) (?v_54 (+ x20 (* x21 x10)))) (let ((?v_52 (+ ?v_54 ?v_51)) (?v_57 (>= (* x21 x11) x21)) (?v_56 (+ ?v_54 ?v_55)) (?v_58 (+ x20 (* x21 x12)))) (let ((?v_59 (+ ?v_58 ?v_51)) (?v_60 (+ x28 (* x29 x10))) (?v_63 (* x29 x11)) (?v_62 (+ (+ x0 (* x1 x30)) ?v_61)) (?v_66 (* x1 x31)) (?v_64 (+ x28 (* x29 x2))) (?v_65 (* x29 x3)) (?v_67 (+ x20 (* x22 ?v_18))) (?v_192 (+ x25 (* x27 ?v_18))) (?v_189 (+ (+ x7 (* x8 x30)) ?v_68))) (let ((?v_69 (+ (+ (+ x32 (* x33 ?v_192)) (* x34 ?v_189)) (* x35 x12))) (?v_191 (* x8 x31)) (?v_70 (+ (+ x13 (* x14 x30)) (* x15 ?v_18))) (?v_72 (+ x38 (* x39 x43))) (?v_73 (+ (+ x40 (* x42 x43)) (* x44 x45)))) (let ((?v_71 (+ x38 (* x39 ?v_73))) (?v_75 (+ x46 (* x47 x45))) (?v_74 (+ x46 (* x47 ?v_73))) (?v_77 (+ x48 (* x49 x45))) (?v_76 (+ x48 (* x49 ?v_73))) (?v_78 (+ x48 (* x49 x43))) (?v_90 (+ x52 (* x53 x43))) (?v_91 (+ x52 (* x53 x45)))) (let ((?v_79 (+ (+ x50 (* x51 ?v_90)) (* x54 ?v_91))) (?v_80 (+ x38 (* x39 x45))) (?v_86 (+ x55 (* x56 x45)))) (let ((?v_81 (+ x20 (* x21 ?v_86))) (?v_84 (* x49 x41)) (?v_82 (+ x46 (* x47 x43))) (?v_85 (+ x57 (* x58 x43)))) (let ((?v_83 (+ x20 (* x22 ?v_85))) (?v_88 (+ x25 (* x27 ?v_85))) (?v_89 (+ x25 (* x26 ?v_86)))) (let ((?v_87 (+ (+ x50 (* x51 ?v_88)) (* x54 ?v_89))) (?v_205 (+ (+ x59 (* x60 ?v_88)) (* x61 ?v_89))) (?v_206 (+ (+ x59 (* x60 ?v_90)) (* x61 ?v_91)))) (let ((?v_92 (+ (+ x50 (* x51 ?v_205)) (* x54 ?v_206))) (?v_209 (+ (* x60 x26) (* x61 x27))) (?v_94 (+ x62 (* x63 x45))) (?v_93 (+ x62 (* x63 ?v_73))) (?v_95 (+ x62 (* x63 x43))) (?v_97 (+ x64 (* x65 x43))) (?v_98 (+ x64 (* x65 x45)))) (let ((?v_96 (+ (+ x0 (* x1 ?v_97)) (* x4 ?v_98))) (?v_211 (+ (+ x7 (* x8 ?v_97)) (* x9 ?v_98)))) (let ((?v_100 (+ (+ x0 (* x1 ?v_211)) (* x4 ?v_99))) (?v_102 (+ x66 (* x67 x45))) (?v_101 (+ x66 (* x67 ?v_73))) (?v_103 (+ x66 (* x67 x43))) (?v_118 (+ x68 (* x69 x43))) (?v_119 (+ x68 (* x69 x45)))) (let ((?v_104 (+ (+ x50 (* x51 ?v_118)) (* x54 ?v_119))) (?v_105 (+ (+ x13 (* x14 ?v_98)) (* x15 ?v_97))) (?v_108 (+ x20 (* x21 ?v_18))) (?v_113 (+ (+ x16 (* x17 ?v_98)) (* x18 ?v_97)))) (let ((?v_106 (+ ?v_108 (* x22 ?v_113))) (?v_107 (+ (+ x13 (* x14 ?v_97)) (* x15 ?v_98))) (?v_111 (+ (+ x16 (* x17 ?v_97)) (* x18 ?v_98)))) (let ((?v_109 (+ ?v_108 (* x22 ?v_111))) (?v_110 (+ (+ x20 (* x21 ?v_97)) (* x22 ?v_98))) (?v_115 (+ (+ x25 (* x26 ?v_97)) (* x27 ?v_98))) (?v_112 (+ x25 (* x26 ?v_18)))) (let ((?v_116 (+ ?v_112 (* x27 ?v_111))) (?v_117 (+ ?v_112 (* x27 ?v_113)))) (let ((?v_114 (+ (+ (+ x32 (* x33 ?v_115)) (* x34 ?v_116)) (* x35 ?v_117))) (?v_215 (+ (+ (+ x70 (* x71 ?v_115)) (* x72 ?v_116)) (* x73 ?v_117))) (?v_216 (+ (+ x59 (* x60 ?v_118)) (* x61 ?v_119)))) (let ((?v_120 (+ (+ x50 (* x51 ?v_215)) (* x54 ?v_216)))) (let ((?v_219 (and (and (and (and (and (and (and (and (and (and (and (and (and (and (and (and (and (and (and (and (and (and (and (and (and (and (and (and (and (and (and (and (and (and (and (and (and (and (and (and (and (and (and (and (and (and (and (and (and (and (and (and (and (and (and (and (and (and (and (> ?v_0 x0) (>= ?v_0 x0)) ?v_6) ?v_9) (and (and (and (> ?v_0 ?v_1) (>= ?v_0 ?v_1)) (>= ?v_2 (* x6 x8))) (>= ?v_3 (* x6 x9)))) (and (and (and (> ?v_5 x0) (>= ?v_5 x0)) ?v_6) ?v_14)) (and (and (and (> ?v_8 x0) (>= ?v_8 x0)) ?v_13) ?v_9)) (and (and (and (> ?v_12 x0) (>= ?v_12 x0)) ?v_13) ?v_14)) (and (and (and (> ?v_12 ?v_15) (>= ?v_12 ?v_15)) (>= ?v_16 ?v_22)) (>= ?v_17 ?v_24))) (and (and (and (> ?v_12 ?v_19) (>= ?v_12 ?v_19)) (>= ?v_16 (* x6 ?v_141))) (>= ?v_17 (* x6 ?v_143)))) (and (and (> ?v_20 x0) (>= ?v_20 x0)) (>= ?v_23 x4))) (and (and (and (and (> ?v_20 ?v_21) (>= ?v_20 ?v_21)) (>= x1 ?v_22)) (>= ?v_23 ?v_24)) (>= (* x4 x9) x4))) (and (and (and (> ?v_25 x13) (>= ?v_25 x13)) ?v_31) ?v_36)) (and (and (and (> ?v_25 ?v_26) (>= ?v_25 ?v_26)) (>= ?v_27 ?v_43)) (>= ?v_28 ?v_44))) (and (and (and (> ?v_30 x13) (>= ?v_30 x13)) ?v_31) ?v_41)) (and (and (and (> ?v_30 ?v_32) (>= ?v_30 ?v_32)) (>= ?v_27 (* x14 x17))) (>= ?v_33 (* x14 x18)))) (and (and (and (> ?v_35 x13) (>= ?v_35 x13)) ?v_40) ?v_36)) (and (and (and (> ?v_39 x13) (>= ?v_39 x13)) ?v_40) ?v_41)) (and (and (and (> ?v_39 ?v_26) (>= ?v_39 ?v_26)) (>= ?v_42 ?v_43)) (>= ?v_33 ?v_44))) (and (and (and (> ?v_45 x20) (>= ?v_45 x20)) (>= ?v_48 x21)) ?v_53)) (and (and (and (> ?v_47 x20) (>= ?v_47 x20)) (>= ?v_48 x22)) (>= ?v_50 x21))) (and (and (and (> ?v_47 ?v_49) (>= ?v_47 ?v_49)) (>= ?v_48 (* x24 x27))) (>= ?v_50 (* x24 x26)))) (and (and (and (> ?v_52 x20) (>= ?v_52 x20)) ?v_57) ?v_53)) (and (and (and (> ?v_56 x20) (>= ?v_56 x20)) ?v_57) (>= ?v_50 x22))) (and (and (> ?v_59 ?v_58) (>= ?v_59 ?v_58)) ?v_53)) (and (and (> ?v_60 x28) (>= ?v_60 x28)) (>= ?v_63 x29))) (and (and (> ?v_60 ?v_62) (>= ?v_60 ?v_62)) (>= ?v_63 ?v_66))) (and (and (> ?v_64 x28) (>= ?v_64 x28)) (>= ?v_65 x29))) (and (and (> ?v_64 ?v_62) (>= ?v_64 ?v_62)) (>= ?v_65 ?v_66))) (and (and (> ?v_64 ?v_67) (>= ?v_64 ?v_67)) (>= ?v_65 x21))) (and (and (> ?v_64 ?v_69) (>= ?v_64 ?v_69)) (>= ?v_65 (+ (* x33 x26) (* x34 ?v_191))))) (and (and (> x36 x28) (>= x36 x28)) (>= x37 x29))) (and (and (> x36 ?v_70) (>= x36 ?v_70)) (>= x37 (* x14 x31)))) (and (> ?v_71 ?v_72) (>= ?v_71 ?v_72))) (and (> ?v_74 ?v_75) (>= ?v_74 ?v_75))) (and (> ?v_76 ?v_77) (>= ?v_76 ?v_77))) (and (> ?v_76 ?v_78) (>= ?v_76 ?v_78))) (and (> ?v_76 ?v_79) (>= ?v_76 ?v_79))) (and (> ?v_76 ?v_80) (>= ?v_76 ?v_80))) (and (and (> ?v_76 ?v_81) (>= ?v_76 ?v_81)) (>= ?v_84 x22))) (and (> ?v_76 ?v_82) (>= ?v_76 ?v_82))) (and (and (> ?v_76 ?v_83) (>= ?v_76 ?v_83)) (>= ?v_84 x21))) (and (and (> ?v_76 ?v_87) (>= ?v_76 ?v_87)) (>= ?v_84 (+ (* x51 x26) (* x54 x27))))) (and (and (> ?v_76 ?v_92) (>= ?v_76 ?v_92)) (>= ?v_84 (* x51 ?v_209)))) (and (> ?v_93 ?v_94) (>= ?v_93 ?v_94))) (and (> ?v_93 ?v_95) (>= ?v_93 ?v_95))) (and (> ?v_93 ?v_96) (>= ?v_93 ?v_96))) (and (> ?v_93 ?v_100) (>= ?v_93 ?v_100))) (and (> ?v_101 ?v_102) (>= ?v_101 ?v_102))) (and (> ?v_101 ?v_103) (>= ?v_101 ?v_103))) (and (> ?v_101 ?v_104) (>= ?v_101 ?v_104))) (and (> ?v_101 ?v_105) (>= ?v_101 ?v_105))) (and (> ?v_101 ?v_106) (>= ?v_101 ?v_106))) (and (> ?v_101 ?v_107) (>= ?v_101 ?v_107))) (and (> ?v_101 ?v_109) (>= ?v_101 ?v_109))) (and (> ?v_101 ?v_94) (>= ?v_101 ?v_94))) (and (> ?v_101 ?v_95) (>= ?v_101 ?v_95))) (and (> ?v_101 ?v_110) (>= ?v_101 ?v_110))) (and (> ?v_101 ?v_114) (>= ?v_101 ?v_114))) (and (> ?v_101 ?v_120) (>= ?v_101 ?v_120)))) (?v_121 (+ x2 (* x3 x12))) (?v_122 (+ x7 (* x8 x12))) (?v_123 (+ x7 (* x9 x12))) (?v_125 (+ x2 (* x3 x7))) (?v_126 (+ x7 (* x8 x2))) (?v_130 (* x9 x2))) (let ((?v_124 (+ ?v_126 ?v_130)) (?v_129 (* x8 x3)) (?v_133 (* x9 x3)) (?v_128 (+ x10 (* x11 x7))) (?v_136 (* x9 x10))) (let ((?v_127 (+ ?v_126 ?v_136)) (?v_132 (* x11 x8)) (?v_134 (* x11 x9)) (?v_142 (* x9 x11)) (?v_135 (+ x7 (* x8 x10)))) (let ((?v_131 (+ ?v_135 ?v_130)) (?v_140 (* x8 x11)) (?v_139 (+ x2 (* x3 ?v_137))) (?v_138 (+ ?v_135 ?v_136)) (?v_145 (+ x7 (* x9 x7))) (?v_146 (+ x16 (* x18 x12))) (?v_147 (+ x16 (* x17 x12))) (?v_149 (+ x2 (* x3 x16))) (?v_150 (+ x16 (* x17 x2))) (?v_154 (* x18 x2))) (let ((?v_148 (+ ?v_150 ?v_154)) (?v_162 (* x3 x17)) (?v_153 (* x17 x3)) (?v_164 (* x3 x18)) (?v_157 (* x18 x3)) (?v_152 (+ x10 (* x11 (+ (+ x16 (* x17 x16)) (* x18 ?v_99))))) (?v_159 (* x18 x10))) (let ((?v_151 (+ ?v_150 ?v_159)) (?v_163 (* x18 x11)) (?v_156 (+ x10 (* x11 x16))) (?v_158 (+ x16 (* x17 x10)))) (let ((?v_155 (+ ?v_158 ?v_154)) (?v_161 (* x17 x11)) (?v_160 (+ ?v_158 ?v_159)) (?v_165 (+ x74 (* x75 x76))) (?v_166 (+ x74 (* x75 x77))) (?v_167 (+ x59 (* x61 x76))) (?v_168 (+ x59 (* x61 x77))) (?v_169 (+ x70 (* x71 x76))) (?v_170 (+ x70 (* x71 x77))) (?v_172 (+ x25 (* x26 x2))) (?v_176 (* x27 x2))) (let ((?v_171 (+ ?v_172 ?v_176)) (?v_175 (* x26 x3)) (?v_178 (>= (* x27 x3) x27)) (?v_174 (+ x74 (* x75 x25))) (?v_180 (* x27 x10))) (let ((?v_173 (+ ?v_172 ?v_180)) (?v_183 (* x27 x11)) (?v_179 (+ x25 (* x26 x10)))) (let ((?v_177 (+ ?v_179 ?v_176)) (?v_182 (>= (* x26 x11) x26)) (?v_181 (+ ?v_179 ?v_180)) (?v_184 (+ x25 (* x27 x12))) (?v_185 (+ x25 (* x26 x12)))) (let ((?v_186 (+ ?v_185 ?v_176)) (?v_187 (+ ?v_185 ?v_180)) (?v_188 (+ x30 (* x31 x12))) (?v_190 (+ x30 (* x31 x10))) (?v_194 (+ (+ (+ x70 (* x71 ?v_192)) (* x72 ?v_189)) (* x73 x12))) (?v_193 (+ x30 (* x31 x2))) (?v_195 (+ (+ x16 (* x17 x30)) (* x18 ?v_18))) (?v_196 (+ x80 (* x81 x82))) (?v_197 (+ x80 (* x81 ?v_73))) (?v_198 (+ x55 (* x56 x82))) (?v_200 (+ x55 (* x56 x43))) (?v_199 (+ x55 (* x56 ?v_73))) (?v_201 (+ x57 (* x58 x82))) (?v_203 (+ x57 (* x58 x45))) (?v_202 (+ x57 (* x58 ?v_73))) (?v_204 (+ x52 (* x53 x82))) (?v_208 (+ (+ x59 (* x60 ?v_205)) (* x61 ?v_206))) (?v_207 (+ x52 (* x53 ?v_73))) (?v_210 (+ x64 (* x65 x82))) (?v_213 (+ (+ x7 (* x8 ?v_211)) (* x9 ?v_99))) (?v_212 (+ x64 (* x65 ?v_73))) (?v_214 (+ x68 (* x69 x82))) (?v_218 (+ (+ x59 (* x60 ?v_215)) (* x61 ?v_216))) (?v_217 (+ x68 (* x69 ?v_73)))) (and (and (and (and (and (and (and (and (and (and (and (and (and (and (and (and (and (and (and (and (and (and (and (and (and (and (and (and (and (and (and (and (and (and (and (and (and (and (and (and (and (and (and (and ?v_219 (and (> ?v_121 x12) (>= ?v_121 x12))) (and (and (> ?v_122 0) (>= ?v_122 0)) (>= x9 1))) (and (and (> ?v_123 0) (>= ?v_123 0)) (>= x8 1))) (and (and (and (> ?v_124 ?v_125) (>= ?v_124 ?v_125)) (>= ?v_129 (* x3 x8))) (>= ?v_133 (* x3 x9)))) (and (and (and (> ?v_127 ?v_128) (>= ?v_127 ?v_128)) (>= ?v_129 ?v_132)) (>= ?v_142 ?v_134))) (and (and (and (> ?v_131 ?v_128) (>= ?v_131 ?v_128)) (>= ?v_140 ?v_132)) (>= ?v_133 ?v_134))) (and (and (and (> ?v_138 ?v_139) (>= ?v_138 ?v_139)) (>= ?v_140 (* x3 ?v_141))) (>= ?v_142 (* x3 ?v_143)))) (and (and (and (and (> ?v_145 ?v_144) (>= ?v_145 ?v_144)) (>= x8 ?v_141)) (>= (* x9 x8) ?v_143)) (>= (* x9 x9) x9))) (and (and (> ?v_146 0) (>= ?v_146 0)) (>= x17 1))) (and (> ?v_147 x12) (>= ?v_147 x12))) (and (and (and (> ?v_148 ?v_149) (>= ?v_148 ?v_149)) (>= ?v_153 ?v_162)) (>= ?v_157 ?v_164))) (and (and (and (> ?v_151 ?v_152) (>= ?v_151 ?v_152)) (>= ?v_153 (* x11 (* x17 x17)))) (>= ?v_163 (* x11 (* x17 x18))))) (and (and (and (> ?v_155 ?v_156) (>= ?v_155 ?v_156)) (>= ?v_161 (* x11 x17))) (>= ?v_157 (* x11 x18)))) (and (and (and (> ?v_160 ?v_149) (>= ?v_160 ?v_149)) (>= ?v_161 ?v_162)) (>= ?v_163 ?v_164))) (and (> ?v_165 x77) (>= ?v_165 x77))) (and (> ?v_166 x76) (>= ?v_166 x76))) (and (and (> ?v_167 0) (>= ?v_167 0)) (>= x60 1))) (and (> ?v_168 x77) (>= ?v_168 x77))) (and (and (> ?v_169 0) (>= ?v_169 0)) (>= x72 1))) (and (and (> ?v_170 0) (>= ?v_170 0)) (>= x73 1))) (and (and (and (> ?v_171 x25) (>= ?v_171 x25)) (>= ?v_175 x26)) ?v_178)) (and (and (and (> ?v_173 ?v_174) (>= ?v_173 ?v_174)) (>= ?v_175 (* x75 x27))) (>= ?v_183 (* x75 x26)))) (and (and (and (> ?v_177 x25) (>= ?v_177 x25)) ?v_182) ?v_178)) (and (and (and (> ?v_181 x25) (>= ?v_181 x25)) ?v_182) (>= ?v_183 x27))) (and (> ?v_184 x76) (>= ?v_184 x76))) (and (and (> ?v_186 ?v_185) (>= ?v_186 ?v_185)) ?v_178)) (and (> ?v_187 x77) (>= ?v_187 x77))) (and (> ?v_188 x12) (>= ?v_188 x12))) (and (and (> ?v_190 ?v_189) (>= ?v_190 ?v_189)) (>= (* x31 x11) ?v_191))) (and (and (> ?v_193 ?v_194) (>= ?v_193 ?v_194)) (>= (* x31 x3) (+ (* x71 x26) (* x72 ?v_191))))) (and (and (> x78 ?v_195) (>= x78 ?v_195)) (>= x79 (* x17 x31)))) (and (and (> ?v_196 0) (>= ?v_196 0)) (>= (* x81 x83) 1))) (and (and (> ?v_197 0) (>= ?v_197 0)) (>= (* x81 x41) 1))) (and (and (> ?v_198 0) (>= ?v_198 0)) (>= (* x56 x83) 1))) (and (> ?v_199 ?v_200) (>= ?v_199 ?v_200))) (and (and (> ?v_201 0) (>= ?v_201 0)) (>= (* x58 x83) 1))) (and (> ?v_202 ?v_203) (>= ?v_202 ?v_203))) (and (> ?v_204 x76) (>= ?v_204 x76))) (and (and (> ?v_207 ?v_208) (>= ?v_207 ?v_208)) (>= (* x53 x41) (* x60 ?v_209)))) (and (> ?v_210 ?v_18) (>= ?v_210 ?v_18))) (and (> ?v_212 ?v_213) (>= ?v_212 ?v_213))) (and (> ?v_214 x76) (>= ?v_214 x76))) (and (> ?v_217 ?v_218) (>= ?v_217 ?v_218))) ?v_219))))))))))))))))))))))))))))))))))))))))))))))))))))
(check-sat)
(exit)
